c Lingeling SAT Solver
c 
c Version ala b02aa1a04343558c4252b5f4a723be021964f652
c 
c Copyright (C) 2010-2012 Armin Biere JKU Linz Austria.
c All rights reserved.
c 
c released Sat Oct 13 14:05:26 CEST 2012
c compiled Sat Feb 16 02:48:12 EST 2013
c 
c gcc (Debian 4.4.5-8) 4.4.5
c -Wall -O3 -DNLGLOG -DNDEBUG -DNCHKSOL -DNLGLPICOSAT 
c Linux greencar2 2.6.32-5-amd64 x86_64
c 
c reading input file p62.cnf
c no embedded options
c found 'p cnf 226268 699072' header
c read 226268 variables, 699072 clauses, 1454098 literals in 0.0 seconds
c
c feature vars 226268
c feature lits.total 1454098
c feature lits.pos 775309
c feature lits.neg 678789
c feature clauses.total 699072
c feature clauses.unit 84726
c feature clauses.bin 492866
c feature clauses.trn 120080
c feature clauses.lrg 1400
c feature cog.val.min 1
c feature cog.val.avg 100799
c feature cog.val.max 217192
c feature cog.var.min 1
c feature cog.var.avg 113135
c feature cog.var.max 226267
c
c
c --abstime=0
c --acts=2
c --actavgmax=120
c --actstdmin=20
c --actstdmax=80
c --agile=23
c --bias=2
c --block=1
c --blkrtc=0
c --blkclslim=2000
c --blkocclim=2000
c --blkmaxeff=2147483647
c --blkmineff=10000000
c --blkreleff=20
c --card=0
c --cce=3
c --ccemaxeff=100000000
c --ccemineff=5000000
c --ccereleff=3
c --check=0
c --cgrclsr=1
c --cgrmaxority=20
c --cgrmaxeff=8000000
c --cgrmineff=200000
c --cgreleff=1
c --cgrexteq=1
c --cgrextand=1
c --cgrextunits=1
c --cgrextite=1
c --cgrextxor=1
c --cliff=1
c --cliffreleff=8
c --cliffmineff=10000000
c --cliffmaxeff=100000000
c --compact=0
c --decompose=1
c --defragint=10000000
c --defragfree=50
c --elim=1
c --elmrtc=0
c --elmblk=1
c --elmclslim=1000
c --elmocclim=1000
c --elmaxeff=100000000
c --elmineff=5000000
c --elmreleff=10
c --sleeponabort=0
c --exitonabort=0
c --flipping=1
c --flipint=2
c --flipdur=50
c --fliptop=1
c --force=0
c --gauss=1
c --gaussextrall=1
c --gaussmaxor=20
c --gaussexptrn=1
c --gaussmaxeff=50000000
c --gaussmineff=2000000
c --gaussreleff=2
c --gluescale=2
c --gluekeep=0
c --inprocessing=1
c --cintinc=10000
c --irrlim=20
c --lift=1
c --lftmaxeff=20000000
c --lftmineff=500000
c --lftreleff=6
c --lhbr=1
c --lkhd=1
c --clim=-1
c --mocint=1000
c --move=2
c --log=-1
c --otfs=1
c --phase=0
c --phaseneginit=0
c --plain=0
c --probe=1
c --prbasicmaxeff=100000000
c --prbasicmineff=1000000
c --prbasicreleff=10
c --prbasic=1
c --prbasicroundlim=9
c --queuemergelim=10000
c --queuefactor=833
c --queueinc=20
c --rmincpen=4
c --seed=0
c --smallirr=90
c --smallve=1
c --smallvevars=12
c --randec=1
c --randecint=1000
c --redfixed=0
c --redlbound=0
c --redlexpfac=10
c --redldoutfac=0
c --redloutinc=10000
c --redlinit=1000
c --redlinc=1000
c --redinoutinc=100
c --redlmininc=10
c --redlmaxinc=200
c --redlminrel=10
c --redlmaxrel=300
c --redlminabs=500
c --redlmaxabs=1000000
c --reduce=1
c --restart=2
c --restartint=5
c --rstinoutinc=110
c --simplify=1
c --simpdelay=100
c --simpen=4
c --sizepen=1000000
c --sizemaxpen=3
c --sortlits=0
c --syncint=111111
c --termint=122222
c --ternres=1
c --ternresrtc=0
c --trnrmineff=4000000
c --trnrmaxeff=40000000
c --trnreleff=10
c --transred=1
c --trdmineff=100000
c --trdmaxeff=2000000
c --trdreleff=10
c --unhide=1
c --unhdextstamp=1
c --unhdhbr=0
c --unhdmaxeff=20000000
c --unhdmineff=1000000
c --unhdreleff=4
c --unhdlnpr=3
c --unhdroundlim=5
c --verbose=1
c --witness=1
c [limits] no conflict limit
c [limits] simplification delayed by 100 to 100 conflicts
c 
c  seconds         irredundant          redundant clauses agility   height
c          variables clauses conflicts large binary ternary    glue         MB
c 
c *    0.0  123680   516478         0       0      0     0  64  0.0   0.0   42
c [cut-width] 171731, max 269464, min4 110212 at 75%, min10 35345 at 89%
c [decision-order] bias 1, old 1
c [queue-schedule-all-variables]
c s    0.0  123680   516478         0       0      0     0  64  0.0   0.0   42
c [simplification-1] limit hit at 100 conflicts
c [simplification-1] simplification penalty of 4
c [ternres-1] limit 4000000 with penalty 0 = 0 + 0
c [ternres-1] all 123680 free variables schedulable
c [ternres-1] 0 ternary resolvents (0 bin, 0 trn)
c [ternres-1] 14345 variables remain 12% (109335 retained)
c [gauss-1] limit 2000000 penalty 0 = 0 + 0
c [gauss-1] extracted 167946 xors of average arity 2.0
c [gauss-1] connected 335894 occurrences of 93057 variables (average 3.6)
c [gauss-1] limit 2000000 penalty 0 = 0 + 0
c d    1.5   56678   255648       100      99      0     1  35  4.3 354.2   21
c [gauss-1] exported 0 unary, 1 binary and 0 ternary equations
c G    1.5   56678   255648       100      99      0     1  35  4.3 354.2   21
c [basicprobe-1] limit 1000000 penalty 0 = 0 + 0
c [basicprobe-1-0] 4463 probes remain 8% after last round
c [basicprobe-1-0] removed 0 variables, found 6856 hbrs
c p    1.7   56678   255648       100      99   6856     1  35  4.3 354.2   25
c [cgrclsr-1] limit 200000 penalty 0 = 0 + 0
c [cgrclsr-1] all 56678 free variables schedulable
c [cgrclsr-1] fully completed congruence closure
c [lift-1] limit 500000 with penalty 0 = 0 + 0
c [lift-1] using 56678 probes 100%
c [lift-1] 56639 variables remain 100% (39 retained)
c [cliff-1] limit of 10000000 steps penalty 0 = 0 + 0
c [cliff-1] failed 1, lifted 1
c K    2.6   56674   255648       100      99  13327     1  35  4.3 354.2   25
c [unhide-1] limit 1000000 with penalty 0 = 0 + 0
c [unhide-1-1] 0 units, 0 failed, 21358 tauts, 0 hbrs, 42 literals
c u    2.9   56674   234270       100      99  13327     1  35  4.3 354.2   25
c [transred-1] limit 100000 with penalty 0 = 0 + 0
c t    2.9   56674   234269       100      99  13325     1  35  4.3 354.2   25
c [block-1] scheduling all variables this time
c [block-1] scheduled 56674 variables 100%
c [block-1] limit of 10000000 steps penalty 0 = 0 + 0
c [block-1] fully completed blocked clause elimination
c [block-1] transition to [ all 0 rem 0 ] state
c [block-1] eliminated 4800 blocked clauses
c k    3.1   56674   229469       100      99  13325  4801  35  4.3 354.2   21
c [cce-1] scheduling all variables this time
c [cce-1] limit of 10000000 steps penalty 0 = 0 + 0
c [cce-1] incomplete covered clause elimination 50951 not tried 90%
c [cce-1] transition to [ all 1 rem 1 ] state
c [cce-1] eliminated 60 covered clauses
c E    3.9   56673   229409       100      99  20900  4801  35  4.3 354.2   21
c [elim-1] scheduling all variables this time
c [elim-1] scheduled 56673 variables 100%
c [elim-1] limit of 5000000 steps penalty 0 = 0 + 0
c [elim-1] incomplete variable elimination 41564 not tried 73%
c [elim-1] transition to [ all 1 rem 1 ] state
c [elim-1] eliminated 6596 = 12% variables out of 56673
c e    5.4   50077   225349       100      63   5899   654  35  4.3 354.2   21
c [phase-1] phase bias: 1817 positive 14%, 11196 negative 86%
c [simplification-1] removed 73603 variables 59%
c [simplification-1] limit increments divided by 30
c [simplification-1] arithmetic increase of conflict limit interval by 333
c [simplification-1] new irredundant limit 2268108
c [simplification-1] new conflict limit 433
c [simplification-1] simplification penalty reduced to 3
c R    5.5   50077   225349       161     119   5899   659  21  4.4 407.7   25
c R    5.7   50077   225349       407     321   5909   689   8  4.7 280.2   25
c [simplification-2] limit hit at 433 conflicts
c [simplification-2] simplification penalty of 3
c [ternres-2] limit 2000000 with penalty 1 = 1 + 0
c [ternres-2] 5785 schedulable variables 12%
c [ternres-2] 2 ternary resolvents (0 bin, 2 trn)
c [ternres-2] fully completed ternary resolution
c T    5.7   50077   225349       433     339   5911   697   8  4.7 260.2   25
c [gauss-2] limit 2000000 penalty 0 = 0 + 0
c [gauss-2] extracted 1083 xors of average arity 3.0
c [gauss-2] connected 3249 occurrences of 1677 variables (average 1.9)
c [gauss-2] limit 2000000 penalty 0 = 0 + 0
c [gauss-2] fully completed
c [gauss-2] exported 0 unary, 0 binary and 0 ternary equations
c G    6.0   50077   225349       433     339   5911   697   8  4.7 260.2   21
c [basicprobe-2] limit 500000 penalty 1 = 1 + 0
c [basicprobe-2-0] 4521 probes remain 9% after last round
c [basicprobe-2-0] removed 0 variables, found 210 hbrs
c p    6.2   50077   225349       433     339   6121   697   8  4.7 260.2   25
c [cgrclsr-2] limit 100000 penalty 1 = 1 + 0
c [cgrclsr-2] all 50077 free variables schedulable
c [cgrclsr-2] fully completed congruence closure
c [lift-2] limit 250000 with penalty 1 = 1 + 0
c [lift-2] using 50041 probes 100%
c [lift-2] 50022 variables remain 100% (55 retained)
c [cliff-2] limit of 10000000 steps penalty 0 = 0 + 0
c [cliff-2] failed 0, lifted 1
c K    7.0   50076   225349       433     339   7736   697   8  4.7 260.2   25
c [unhide-2] limit 1000000 with penalty 0 = 0 + 0
c [unhide-2-2] 0 units, 0 failed, 1553 tauts, 0 hbrs, 142 literals
c u    7.2   50076   225336       433     338   6184   697   8  4.7 260.2   25
c [transred-3] limit 100000 with penalty 0 = 0 + 0
c t    7.3   50076   225336       433     338   6183   697   8  4.7 260.2   25
c [block-2] scheduling all variables this time
c [block-2] scheduled 50076 variables 100%
c [block-2] limit of 10000000 steps penalty 0 = 0 + 0
c [block-2] fully completed blocked clause elimination
c [block-2] transition to [ all 0 rem 0 ] state
c [block-2] eliminated 2 blocked clauses
c k    7.5   50076   225334       433     338   6185   697   8  4.7 260.2   21
c [cce-2] 47111 variables 94% will be scheduled this time
c [cce-2] limit of 10000000 steps penalty 0 = 0 + 0
c [cce-2] 46566 variables 93% remain to be tried next time
c [cce-2] transition to [ all 0 rem 1 ] state
c [cce-2] eliminated 365 covered clauses
c E    8.1   50075   224969       433     338   7124   697   8  4.7 260.2   21
c [elim-2] 41521 variables 83% will be scheduled this time
c [elim-2] scheduled 41521 variables 83%
c [elim-2] limit of 5000000 steps penalty 0 = 0 + 0
c [elim-2] 31470 variables 63% remain to be tried next time
c [elim-2] transition to [ all 0 rem 1 ] state
c [elim-2] eliminated 991 = 2% variables out of 50075
c e    9.7   49084   224564       433     338   4834   697   8  4.7 260.2   21
c [phase-2] phase bias: 69 positive 91%, 7 negative 9%
c [simplification-2] removed 993 variables 1%
c [simplification-2] no reduction of limit increments
c [simplification-2] arithmetic increase of conflict limit interval by 10000
c [simplification-2] new irredundant limit 2268108
c [simplification-2] new conflict limit 10766
c [simplification-2] simplification penalty reduced to 2
c R   10.1   49084   224564       970     815   4841   744   4  6.3 211.6   25
c 
c  seconds         irredundant          redundant clauses agility   height
c          variables clauses conflicts large binary ternary    glue         MB
c 
c -   10.3   49084   224564      1199     502   4848   774   3  6.1 190.7   25
c R   11.1   49084   224564      2262    1439   4881   854   4  6.5 246.5   25
c -   12.7   49084   224564      4203    1596   4959  1041   5  6.4 239.6   25
c R   13.0   49084   224564      5169    2536   4961  1065   6  7.2 239.2   26
c -   15.1   49084   224564      8028    2502   5039  1351   2  6.9 226.7   25
c 1   16.7   49084   224564     10594    4826   5101  1509   5  7.4 237.0   26
c 
c  seconds         irredundant          redundant clauses agility   height
c          variables clauses conflicts large binary ternary    glue         MB
c 
c blkd: 2 bces, 4802 removed, 1349823 resolutions, 3732814 steps
c blkd: 4801 blocking literals 1%, 0 pure
c cces: 2 cces, 417 eliminated, 417 ate 100%, 0 abce 0%
c cces: 12536 probed, 0 lifted, 2 failed
c clff: 2 cliffs, 2 lifted, 1 failed
c clff: 9876 decisions, 20003877 steps
c clls: 1 sat, 0 simp, 0 freeze, 0 melt
c clls: 2153170 add, 0 assume,, 0 deref, 0 failed
c clls: 0 cassume, 0 mosat
c coll: 13 gcs, 0 rescored clauses
c cgrs: 2 count, 300000 esteps, 78752 csteps
c cgrs: 0 eqs, 0 units
c cgrs: 0 matched (0 ands 0%, 0 xors 0%, 0 ites 0%)
c cgrs: 0 simplified (0 ands 0%, 0 xors 0%, 0 ites 0%)
c cgrs: 2167 extracted (1824 ands 84%, 343 xors 16%, 0 ites 0%)
c dcps: 3 decompositions, 67002 equivalent 30%
c decs: 211867 decision, 207 random 0.098%
c decs: 49598 flipped 23.410% (in 69 phases)
c elms: 2 elims, 7587 eliminated 3%
c elms: 7587 small 100%, 0 large 0%
c elms: 25304 tried small, 7587 succeeded 30%, 17717 failed 70%
c elms: 0 subsumed, 0 strengthened, 0 blocked
c elms: 317567 copies, 222222 resolutions, 647546 ipos
c elms: 0 subchks, 0 strchks
c frcs: 0 computed, 30.0 - 70.0 average min-cut range
c gaus: 2 extractions, 169029 extracted, 2.0 size, 3 max
c gaus: exported 0 units, 1 binary and 0 ternary equations
c gaus: 0 gc, 8000104 steps, 4000052 extr 50%, 2439476 elim 30%
c glue: 7.4 avg, 2.7 scaled avg
c glue: 0 maxredglue=15 (0%)
c lift: 2 phases, 348 probed (116 level1 33%, 232 level2 67%)
c lift: 0 units, 0 equivalences, 0 implications
c hbrs: 23260 hbrs = 23260 trn 100% + 0 lrg 0%, 6 sub 0%
c lrnd: 10500 clauses, 6576 uips 63%, 26.3 length, 7.4 glue
c ints: 511 luby (67103 steps), 0 inout (0 steps)
c mins: 275647 learned lits, 6% minimized
c move: moved 5219, 419 binary 8%, 4800 ternary 92%
c otfs: str 583 dyn (523 red, 60 irr) 94 drv 16%, 489 rst 84%
c otfs: sub 2 dyn (2 red, 0 irr)
c phas: 2 computed, 13199 set, 1886 pos (14%), 11313 neg (86%)
c prbs: 2 basic, 1906 probed, 0 failed, 0 lifted
c prps: 28690944 props, 104 props/dec
c prps: 76% srch, 24% simp, 0% lkhd
c psns: 1241660 searches, 158187 hits, 13% hit rate
c queu: 38501 new, 15030 del, 120 maximum priority
c queu: 23457 merged, 20842 collected, 4 gcs
c queu: 11083 deprioritized, 22.6 lines on average
c reds: 3 count, 0 reset, 3 acts 100%, 0 exp 0%
c reds: 3 arithmetic 100%, 3 double 100%
c rmbd: 7 removed, 0 red 0%
c rsts: 481 restarts 94%, 29 skipped 6%
c rsts: 62 kept 12.9% average 30.4%
c simp: 2 count (0 ilim 0%, 0 plim 0%, 2 clim 100%)
c trnr: 2 count, 0 bin, 2 trn, 4415082 steps
c tops: 102595 fixed 45%, 0 iterations
c trds: 4 transitive reductions, 4 removed, 0 failed
c trds: 301 nodes, 403 edges, 201601 steps
c unhd: 2 count, 2 rounds, 2362092 steps
c unhd: 0 non-trivial sccs of average size 0.0
c unhd: 0 units, 0 bin, 0 trn, 0 lrg
c unhd: 0 failed, 0 stamp, 0 lits, 0 bin, 0 trn, 0 lrg
c unhd: 22911 tauts, 0 bin 0%, 1 trn 0%, 0 lrg 0%
c unhd: 22911 tauts, 22910 stamp 100%, 1553 red 7%
c unhd: 0 hbrs, 0 trn 0%, 0 lrg 0%, 0 red 0%
c unhd: 184 strd, 0 bin 0%, 0 trn 0%, 184 lrg 100%, 184 red 100%
c vars: 49084 remaining 22% and 177184 removed 78% out of 226268
c vars: 102595 fixed 45%, 7587 eliminated 3%, 67002 equivalent 30%
c vsts: 141868436 visits, 79% srch, 21% simp, 0% lkhd
c vsts: 5.1 search visits per propagation 10515.7 per conflict
c wchs: 10335979 pushed, 4161091 enlarged, 22 defrags
c 
c scaledglue  added       reduced       forcing      resolved     conflicts
c 
c all      9391 100      4502 100     82357 100     20982 100      2013 100
c 
c  0          0   0         0   0         0   0         0   0         0   0 
c  1         74   1        32   1      1284   2       127   1         4   0 
c  2       3080  33      1552  34     34652  42      5960  28       444  22 
c  3       3635  39<     1477  33<    37638  46<     9315  44<     1124  56<
c  4       1755  19       981  22      7406   9      4021  19       364  18 
c  5        593   6       355   8       990   1      1122   5        47   2 
c  6        188   2        77   2       294   0       337   2        24   1 
c  7         41   0        14   0        54   0        65   0         5   0 
c  8         17   0         9   0        26   0        25   0         1   0 
c  9          6   0         4   0         8   0         7   0         0   0 
c 10          2   0         1   0         5   0         3   0         0   0 
c 11          0   0         0   0         0   0         0   0         0   0 
c 12          0   0         0   0         0   0         0   0         0   0 
c 13          0   0         0   0         0   0         0   0         0   0 
c 14          0   0         0   0         0   0         0   0         0   0 
c 15          0   0         0   0         0   0         0   0         0   0 
c 
c avg             3.1           3.1           2.7           3.1           3.1
c std             1.1           1.1           0.8           1.0           0.8
c 
c 211867 decisions, 10594 conflicts, 633.9 conflicts/sec
c 28690944 propagations, 1.7 megaprops/sec
c 16.7 seconds, 48.2 MB
c 
c    1.036   6% analysis
c    0.448   3% block
c    0.052   0% bump
c    0.000   0% card
c    1.336   8% cce
c    1.164   7% cliff
c    0.024   0% cutwidth
c    0.328   2% decide
c    0.000   0% force
c    0.948   6% gc
c    0.320   2% cgrclsr
c    0.532   3% decomp
c    0.280   2% defrag
c    3.140  19% elim
c    1.524   9% gauss
c    0.304   2% lift
c    0.168   1% mincls
c    0.080   0% phase
c    0.168   1% probe
c    0.020   0% reduce
c    0.508   3% restart
c    0.132   1% ternres
c    0.020   0% transred
c    0.460   3% unhide
c ==================================
c    0.032   0% preprocessing     0%
c    9.521  57% inprocessing    100%
c ==================================
c    9.553  57% simplifying
c    0.000   0% lookahead
c    7.144  43% search
c ==================================
c   16.713 100% all
c
s SATISFIABLE
